NAME : 0
COMMENT : CVRP Instance
TYPE : CVRP
DIMENSION : 524
EDGE_WEIGHT_TYPE : EUC_2D
CAPACITY : 125
NODE_COORD_SECTION
1	691.0	729.0
2	978.0	828.0
3	427.0	367.0
4	777.0	543.0
5	190.0	596.0
6	773.0	750.0
7	234.0	727.0
8	851.0	358.0
9	140.0	69.0
10	891.0	285.0
11	467.0	13.0
12	537.0	162.0
13	636.0	355.0
14	213.0	284.0
15	75.0	877.0
16	384.0	814.0
17	606.0	173.0
18	76.0	236.0
19	86.0	733.0
20	642.0	61.0
21	303.0	261.0
22	771.0	775.0
23	107.0	264.0
24	763.0	43.0
25	811.0	873.0
26	38.0	170.0
27	822.0	920.0
28	907.0	792.0
29	539.0	273.0
30	576.0	836.0
31	491.0	411.0
32	430.0	725.0
33	727.0	248.0
34	532.0	825.0
35	457.0	218.0
36	398.0	153.0
37	942.0	597.0
38	8.0	330.0
39	637.0	85.0
40	75.0	781.0
41	578.0	635.0
42	560.0	188.0
43	27.0	523.0
44	432.0	198.0
45	359.0	691.0
46	695.0	372.0
47	203.0	307.0
48	641.0	389.0
49	836.0	612.0
50	375.0	499.0
51	818.0	980.0
52	577.0	226.0
53	889.0	259.0
54	516.0	324.0
55	102.0	346.0
56	318.0	976.0
57	223.0	11.0
58	484.0	245.0
59	365.0	982.0
60	648.0	790.0
61	878.0	261.0
62	600.0	800.0
63	493.0	722.0
64	549.0	214.0
65	714.0	918.0
66	638.0	166.0
67	452.0	172.0
68	711.0	687.0
69	924.0	905.0
70	326.0	662.0
71	786.0	203.0
72	24.0	32.0
73	529.0	661.0
74	843.0	248.0
75	115.0	449.0
76	82.0	971.0
77	876.0	644.0
78	322.0	24.0
79	642.0	810.0
80	685.0	607.0
81	141.0	824.0
82	351.0	732.0
83	641.0	954.0
84	330.0	941.0
85	830.0	188.0
86	469.0	250.0
87	970.0	812.0
88	723.0	360.0
89	274.0	238.0
90	668.0	103.0
91	562.0	82.0
92	269.0	147.0
93	135.0	493.0
94	895.0	953.0
95	930.0	729.0
96	579.0	972.0
97	901.0	987.0
98	546.0	102.0
99	664.0	479.0
100	967.0	393.0
101	388.0	767.0
102	977.0	995.0
103	933.0	329.0
104	947.0	364.0
105	242.0	400.0
106	991.0	716.0
107	983.0	38.0
108	738.0	728.0
109	436.0	466.0
110	346.0	490.0
111	639.0	634.0
112	765.0	715.0
113	772.0	60.0
114	254.0	183.0
115	804.0	906.0
116	150.0	451.0
117	378.0	297.0
118	881.0	802.0
119	959.0	912.0
120	225.0	450.0
121	213.0	802.0
122	842.0	994.0
123	662.0	474.0
124	20.0	116.0
125	562.0	217.0
126	709.0	544.0
127	50.0	682.0
128	771.0	244.0
129	538.0	704.0
130	506.0	883.0
131	341.0	389.0
132	414.0	522.0
133	583.0	435.0
134	210.0	579.0
135	326.0	715.0
136	92.0	24.0
137	969.0	100.0
138	252.0	841.0
139	879.0	544.0
140	648.0	720.0
141	291.0	405.0
142	14.0	19.0
143	446.0	28.0
144	130.0	966.0
145	978.0	572.0
146	333.0	105.0
147	558.0	84.0
148	288.0	10.0
149	783.0	837.0
150	1000.0	230.0
151	319.0	895.0
152	76.0	494.0
153	289.0	952.0
154	254.0	165.0
155	915.0	405.0
156	151.0	945.0
157	407.0	685.0
158	294.0	824.0
159	106.0	831.0
160	373.0	284.0
161	875.0	321.0
162	768.0	758.0
163	735.0	150.0
164	304.0	323.0
165	760.0	158.0
166	277.0	663.0
167	217.0	608.0
168	712.0	264.0
169	958.0	12.0
170	879.0	873.0
171	52.0	214.0
172	63.0	197.0
173	690.0	714.0
174	579.0	862.0
175	313.0	245.0
176	32.0	608.0
177	9.0	608.0
178	840.0	747.0
179	152.0	742.0
180	994.0	868.0
181	294.0	57.0
182	76.0	784.0
183	302.0	11.0
184	527.0	742.0
185	753.0	939.0
186	156.0	870.0
187	571.0	127.0
188	913.0	884.0
189	922.0	146.0
190	900.0	41.0
191	346.0	427.0
192	637.0	341.0
193	162.0	87.0
194	581.0	979.0
195	93.0	14.0
196	888.0	48.0
197	168.0	188.0
198	427.0	499.0
199	856.0	260.0
200	54.0	332.0
201	459.0	387.0
202	118.0	61.0
203	754.0	299.0
204	233.0	411.0
205	883.0	640.0
206	288.0	268.0
207	489.0	533.0
208	720.0	892.0
209	115.0	418.0
210	22.0	358.0
211	839.0	126.0
212	516.0	272.0
213	162.0	208.0
214	361.0	714.0
215	157.0	512.0
216	826.0	443.0
217	855.0	12.0
218	798.0	356.0
219	882.0	889.0
220	554.0	183.0
221	354.0	851.0
222	776.0	448.0
223	21.0	719.0
224	812.0	664.0
225	650.0	254.0
226	196.0	793.0
227	668.0	231.0
228	412.0	946.0
229	57.0	773.0
230	911.0	335.0
231	490.0	922.0
232	371.0	480.0
233	723.0	473.0
234	223.0	658.0
235	234.0	50.0
236	408.0	609.0
237	118.0	434.0
238	393.0	488.0
239	225.0	141.0
240	444.0	66.0
241	547.0	252.0
242	132.0	189.0
243	865.0	488.0
244	106.0	475.0
245	636.0	540.0
246	104.0	269.0
247	135.0	647.0
248	222.0	849.0
249	844.0	424.0
250	428.0	875.0
251	94.0	941.0
252	325.0	93.0
253	957.0	47.0
254	172.0	293.0
255	381.0	958.0
256	148.0	504.0
257	588.0	69.0
258	863.0	453.0
259	709.0	51.0
260	129.0	266.0
261	679.0	164.0
262	977.0	422.0
263	372.0	843.0
264	912.0	957.0
265	1000.0	521.0
266	442.0	912.0
267	743.0	716.0
268	838.0	43.0
269	649.0	346.0
270	144.0	771.0
271	771.0	321.0
272	454.0	383.0
273	553.0	361.0
274	419.0	490.0
275	482.0	77.0
276	13.0	726.0
277	967.0	302.0
278	556.0	701.0
279	484.0	665.0
280	969.0	209.0
281	972.0	422.0
282	297.0	676.0
283	461.0	532.0
284	476.0	864.0
285	978.0	988.0
286	340.0	827.0
287	675.0	391.0
288	895.0	110.0
289	225.0	785.0
290	832.0	207.0
291	465.0	723.0
292	289.0	259.0
293	281.0	611.0
294	875.0	10.0
295	752.0	271.0
296	926.0	12.0
297	539.0	782.0
298	25.0	72.0
299	530.0	546.0
300	772.0	963.0
301	724.0	627.0
302	791.0	367.0
303	375.0	323.0
304	0.0	91.0
305	385.0	995.0
306	132.0	510.0
307	941.0	144.0
308	488.0	274.0
309	403.0	745.0
310	965.0	258.0
311	456.0	817.0
312	313.0	773.0
313	486.0	256.0
314	657.0	8.0
315	231.0	914.0
316	256.0	745.0
317	668.0	922.0
318	528.0	298.0
319	153.0	272.0
320	303.0	733.0
321	814.0	649.0
322	352.0	306.0
323	187.0	498.0
324	141.0	175.0
325	115.0	362.0
326	857.0	350.0
327	878.0	459.0
328	663.0	898.0
329	592.0	503.0
330	222.0	391.0
331	846.0	792.0
332	461.0	617.0
333	592.0	526.0
334	582.0	527.0
335	290.0	396.0
336	333.0	441.0
337	292.0	402.0
338	522.0	501.0
339	489.0	939.0
340	781.0	370.0
341	197.0	119.0
342	582.0	192.0
343	299.0	353.0
344	506.0	792.0
345	638.0	178.0
346	755.0	124.0
347	654.0	335.0
348	917.0	986.0
349	277.0	98.0
350	986.0	960.0
351	66.0	850.0
352	623.0	623.0
353	602.0	913.0
354	674.0	0.0
355	125.0	625.0
356	937.0	264.0
357	430.0	671.0
358	171.0	691.0
359	1.0	656.0
360	374.0	862.0
361	407.0	938.0
362	284.0	116.0
363	939.0	702.0
364	155.0	256.0
365	504.0	293.0
366	770.0	501.0
367	764.0	790.0
368	702.0	683.0
369	525.0	835.0
370	839.0	711.0
371	379.0	711.0
372	140.0	264.0
373	597.0	673.0
374	657.0	752.0
375	265.0	523.0
376	798.0	514.0
377	679.0	437.0
378	843.0	272.0
379	981.0	47.0
380	708.0	837.0
381	55.0	768.0
382	965.0	58.0
383	664.0	373.0
384	103.0	28.0
385	841.0	826.0
386	47.0	539.0
387	530.0	354.0
388	924.0	776.0
389	477.0	784.0
390	69.0	282.0
391	371.0	110.0
392	309.0	154.0
393	234.0	333.0
394	460.0	499.0
395	61.0	527.0
396	104.0	132.0
397	711.0	178.0
398	602.0	538.0
399	47.0	755.0
400	357.0	66.0
401	332.0	541.0
402	332.0	390.0
403	860.0	711.0
404	817.0	206.0
405	853.0	658.0
406	440.0	187.0
407	603.0	576.0
408	438.0	190.0
409	857.0	282.0
410	169.0	702.0
411	461.0	299.0
412	878.0	549.0
413	252.0	181.0
414	714.0	846.0
415	196.0	92.0
416	995.0	201.0
417	780.0	638.0
418	724.0	171.0
419	650.0	937.0
420	353.0	961.0
421	505.0	953.0
422	801.0	374.0
423	239.0	74.0
424	718.0	26.0
425	325.0	941.0
426	0.0	789.0
427	461.0	518.0
428	559.0	493.0
429	461.0	432.0
430	330.0	888.0
431	391.0	542.0
432	548.0	841.0
433	965.0	772.0
434	252.0	790.0
435	181.0	188.0
436	61.0	446.0
437	215.0	324.0
438	181.0	749.0
439	562.0	764.0
440	678.0	70.0
441	422.0	965.0
442	985.0	664.0
443	344.0	341.0
444	678.0	370.0
445	118.0	587.0
446	483.0	572.0
447	913.0	258.0
448	548.0	391.0
449	669.0	600.0
450	951.0	149.0
451	735.0	621.0
452	474.0	67.0
453	765.0	428.0
454	615.0	218.0
455	854.0	798.0
456	850.0	728.0
457	928.0	10.0
458	154.0	235.0
459	390.0	924.0
460	768.0	589.0
461	4.0	303.0
462	204.0	802.0
463	43.0	400.0
464	525.0	257.0
465	673.0	778.0
466	850.0	158.0
467	593.0	392.0
468	123.0	233.0
469	935.0	921.0
470	130.0	687.0
471	394.0	334.0
472	765.0	405.0
473	625.0	734.0
474	540.0	408.0
475	881.0	423.0
476	358.0	553.0
477	903.0	236.0
478	524.0	486.0
479	64.0	121.0
480	11.0	847.0
481	758.0	962.0
482	981.0	723.0
483	36.0	659.0
484	539.0	348.0
485	506.0	458.0
486	762.0	62.0
487	465.0	529.0
488	956.0	508.0
489	294.0	792.0
490	173.0	89.0
491	96.0	995.0
492	982.0	670.0
493	593.0	42.0
494	473.0	529.0
495	256.0	579.0
496	538.0	566.0
497	706.0	808.0
498	373.0	748.0
499	346.0	575.0
500	252.0	819.0
501	260.0	698.0
502	538.0	250.0
503	348.0	539.0
504	952.0	444.0
505	716.0	841.0
506	84.0	185.0
507	320.0	795.0
508	168.0	346.0
509	857.0	379.0
510	84.0	839.0
511	901.0	930.0
512	637.0	820.0
513	297.0	973.0
514	61.0	140.0
515	804.0	298.0
516	795.0	51.0
517	979.0	294.0
518	492.0	157.0
519	324.0	520.0
520	285.0	618.0
521	672.0	535.0
522	306.0	601.0
523	832.0	980.0
524	450.0	987.0
DEMAND_SECTION
1	0
2	95
3	66
4	66
5	50
6	55
7	91
8	100
9	73
10	96
11	85
12	82
13	72
14	77
15	62
16	86
17	100
18	63
19	94
20	97
21	78
22	94
23	83
24	90
25	71
26	59
27	88
28	50
29	65
30	75
31	50
32	56
33	90
34	56
35	71
36	95
37	93
38	97
39	79
40	94
41	69
42	90
43	63
44	93
45	82
46	53
47	92
48	70
49	88
50	57
51	93
52	69
53	66
54	98
55	75
56	69
57	87
58	69
59	55
60	64
61	92
62	96
63	80
64	85
65	66
66	99
67	54
68	77
69	67
70	77
71	66
72	74
73	93
74	81
75	60
76	73
77	64
78	84
79	60
80	57
81	95
82	63
83	51
84	77
85	67
86	70
87	98
88	66
89	60
90	56
91	72
92	77
93	71
94	51
95	79
96	97
97	93
98	84
99	79
100	75
101	86
102	58
103	65
104	54
105	57
106	81
107	88
108	85
109	82
110	82
111	81
112	59
113	81
114	94
115	82
116	81
117	94
118	75
119	63
120	95
121	54
122	85
123	52
124	53
125	67
126	56
127	61
128	53
129	80
130	76
131	56
132	52
133	61
134	53
135	87
136	95
137	73
138	52
139	60
140	91
141	98
142	58
143	65
144	88
145	60
146	62
147	97
148	96
149	59
150	76
151	83
152	64
153	83
154	65
155	57
156	55
157	93
158	71
159	89
160	69
161	93
162	86
163	99
164	70
165	56
166	75
167	95
168	60
169	54
170	57
171	89
172	53
173	73
174	78
175	76
176	55
177	96
178	80
179	58
180	83
181	75
182	84
183	69
184	90
185	57
186	61
187	100
188	95
189	59
190	60
191	74
192	55
193	92
194	76
195	70
196	92
197	85
198	85
199	51
200	61
201	63
202	59
203	86
204	86
205	71
206	50
207	6
208	6
209	10
210	2
211	6
212	1
213	1
214	3
215	8
216	7
217	9
218	8
219	9
220	7
221	6
222	7
223	6
224	6
225	8
226	3
227	7
228	6
229	2
230	10
231	4
232	3
233	3
234	5
235	3
236	10
237	2
238	9
239	6
240	3
241	7
242	3
243	5
244	5
245	2
246	5
247	9
248	2
249	9
250	10
251	10
252	8
253	4
254	2
255	4
256	9
257	10
258	1
259	10
260	9
261	8
262	5
263	2
264	5
265	3
266	1
267	8
268	2
269	8
270	3
271	9
272	5
273	2
274	2
275	10
276	1
277	1
278	6
279	2
280	5
281	7
282	4
283	6
284	4
285	7
286	8
287	1
288	3
289	7
290	2
291	6
292	1
293	7
294	5
295	8
296	2
297	6
298	5
299	4
300	5
301	6
302	5
303	8
304	5
305	9
306	10
307	5
308	1
309	10
310	8
311	8
312	9
313	4
314	10
315	10
316	7
317	9
318	9
319	9
320	2
321	1
322	10
323	8
324	3
325	3
326	3
327	3
328	6
329	5
330	7
331	3
332	2
333	9
334	8
335	4
336	6
337	9
338	10
339	2
340	8
341	2
342	5
343	10
344	7
345	2
346	2
347	3
348	10
349	1
350	7
351	2
352	8
353	6
354	7
355	8
356	8
357	9
358	1
359	10
360	1
361	1
362	2
363	9
364	5
365	9
366	4
367	1
368	9
369	5
370	6
371	3
372	5
373	8
374	8
375	1
376	10
377	5
378	2
379	9
380	6
381	7
382	5
383	1
384	2
385	2
386	5
387	8
388	9
389	5
390	2
391	2
392	7
393	8
394	10
395	3
396	7
397	8
398	7
399	10
400	8
401	10
402	9
403	1
404	4
405	3
406	10
407	2
408	2
409	5
410	3
411	10
412	7
413	8
414	5
415	9
416	9
417	3
418	6
419	2
420	9
421	5
422	8
423	1
424	8
425	8
426	6
427	9
428	10
429	10
430	8
431	5
432	5
433	6
434	2
435	9
436	7
437	7
438	4
439	7
440	6
441	3
442	6
443	9
444	6
445	8
446	10
447	8
448	9
449	2
450	4
451	1
452	9
453	2
454	2
455	10
456	7
457	4
458	1
459	9
460	7
461	6
462	9
463	8
464	2
465	5
466	7
467	8
468	7
469	4
470	1
471	8
472	2
473	4
474	6
475	8
476	5
477	8
478	2
479	2
480	6
481	10
482	10
483	9
484	2
485	8
486	7
487	1
488	5
489	7
490	8
491	5
492	1
493	9
494	4
495	10
496	2
497	1
498	8
499	2
500	6
501	7
502	5
503	8
504	5
505	9
506	3
507	9
508	6
509	2
510	3
511	2
512	2
513	1
514	7
515	7
516	1
517	5
518	3
519	7
520	5
521	1
522	8
523	9
524	3
DEPOT_SECTION
1
-1
EOF
